units           metal
boundary        p p p
atom_style      charge
variable        etol_minimize equal 0.0
variable        ftol_minimize equal 1e-11
variable        maxiter_minimize equal 100000000
variable        maxeval_minimize equal 10000000000
variable        temp equal 300
variable        seed equal 123456

read_data       neutralized_fe203_nanoparticle_radius_10.lmp
Reading data file ...
  orthogonal box = (-30 -30 -30) to (30 30 30)
  1 by 1 by 1 MPI processor grid
  reading atoms ...
  360 atoms
  read_data CPU = 0.002 seconds

# Buckingham parameters for Fe2O3 Potentials:
# (Liu et al., 2020) https://doi.org/10.1016/j.powtec.2020.03.043
pair_style      buck/coul/long/cs 12.0
kspace_style    ewald   1.0e-6
pair_coeff      1 2     62775.704   0.165   32.055      # Fe-O
pair_coeff      2 2     3834.644    0.305   123.029     #  O-O
pair_coeff      1 1     2500.943    0.029   6.383       # Fe-Fe
mass            1       55.84500000                     # Fe
mass            2       15.99900000                     # O

set             type    1           charge  1.311
Setting atom values ...
  144 settings made for charge
set             type    2           charge -0.874
Setting atom values ...
  216 settings made for charge

thermo          1
# thermo_style    custom step etotal epair evdwl ecoul elong ebond press
thermo_style    custom step etotal temp press

neigh_modify    every 1 delay 0 check yes
# dump            minimization all custom 100 data/relax_disl.*.dump.gz id type x y z
# dump_modify     minimization first no format float %23.17e

minimize	    ${etol_minimize} ${ftol_minimize} ${maxiter_minimize} ${maxeval_minimize}
minimize	    0 ${ftol_minimize} ${maxiter_minimize} ${maxeval_minimize}
minimize	    0 1e-11 ${maxiter_minimize} ${maxeval_minimize}
minimize	    0 1e-11 100000000 ${maxeval_minimize}
minimize	    0 1e-11 100000000 10000000000
Ewald initialization ...
  using 12-bit tables for long-range coulomb (src/kspace.cpp:342)
  G vector (1/distance) = 0.26619561
  estimated absolute RMS force accuracy = 1.5346319e-05
  estimated relative force accuracy = 1.0657429e-06
  KSpace vectors: actual max1d max3d = 10239 17 21437
                  kxmax kymax kzmax  = 17 17 17
Generated 0 of 1 mixed pair_coeff terms from geometric mixing rule
Neighbor list info ...
  update: every = 1 steps, delay = 0 steps, check = yes
  max neighbors/atom: 2000, page size: 100000
  master list distance cutoff = 14
  ghost atom cutoff = 14
  binsize = 7, bins = 9 9 9
  1 neighbor lists, perpetual/occasional/extra = 1 0 0
  (1) pair buck/coul/long/cs, perpetual
      attributes: half, newton on
      pair build: half/bin/atomonly/newton
      stencil: half/bin/3d
      bin: standard
Per MPI rank memory allocation (min/avg/max) = 33.48 | 33.48 | 33.48 Mbytes
   Step         TotEng          Temp          Press     
         0  -2345.0488      0             -896.3029     
         1  -2371.3458      0             -837.89945    
         2  -2387.0566      0             -617.41709    
         3  -2397.8509      0             -308.44149    
         4  -2402.5767      0             -282.9985     
         5  -2406.0417      0             -76.494242    
         6  -2408.3307      0             -20.702978    
         7  -2409.7445      0             -34.065768    
         8  -2411.0038      0             -31.254136    
         9  -2411.9914      0              8.0090361    
        10  -2412.9161      0             -1.2083015    
        11  -2413.6676      0              9.0614276    
        12  -2414.3952      0             -1.4867917    
        13  -2415.0158      0              11.195511    
        14  -2415.5426      0              7.8167437    
        15  -2416.0493      0              18.967753    
        16  -2416.4126      0              32.713938    
        17  -2416.7716      0              49.273899    
        18  -2417.0709      0              47.367475    
        19  -2417.1947      0              40.287022    
        20  -2417.474       0              35.79926     
        21  -2417.6955      0              40.408225    
        22  -2417.9117      0              33.719492    
        23  -2418.0686      0              22.102219    
        24  -2418.1674      0              31.904016    
        25  -2418.2506      0              37.602439    
        26  -2418.3145      0              28.30247     
        27  -2418.4254      0              19.275498    
        28  -2418.5753      0              22.854083    
        29  -2418.6848      0              21.954512    
        30  -2418.886       0              16.241196    
        31  -2419.1003      0              1.2360416    
        32  -2419.2893      0             -11.344722    
        33  -2419.422       0             -6.9714847    
        34  -2419.4982      0              5.8212999    
        35  -2419.5792      0              9.3204081    
        36  -2419.6691      0              9.0519228    
        37  -2419.7359      0              12.040724    
        38  -2419.7896      0              6.7377658    
        39  -2419.8431      0              1.7563325    
        40  -2419.8916      0              0.96873147   
        41  -2419.9341      0              4.1061177    
        42  -2419.9802      0              4.7045357    
        43  -2420.0511      0              3.2397833    
        44  -2420.1433      0             -2.3070646    
        45  -2420.2545      0              0.6353223    
        46  -2420.3636      0             -5.0235341    
        47  -2420.4408      0             -8.8843357    
        48  -2420.5005      0             -10.146265    
        49  -2420.5549      0             -5.4025501    
        50  -2420.5915      0             -2.9227056    
        51  -2420.6165      0             -4.1815865    
        52  -2420.6369      0             -2.0833448    
        53  -2420.6574      0             -1.4489686    
        54  -2420.6789      0             -1.8967481    
        55  -2420.704       0             -0.37370467   
        56  -2420.7526      0              0.4579752    
        57  -2420.8303      0              0.14807232   
        58  -2420.9156      0              1.7153855    
        59  -2420.9639      0              1.7734565    
        60  -2421.005       0              2.8084897    
        61  -2421.0523      0              2.9770156    
        62  -2421.1268      0             -1.4455529    
        63  -2421.2169      0             -3.6330811    
        64  -2421.3163      0             -2.6612719    
        65  -2421.4234      0             -4.3101494    
        66  -2421.5185      0             -7.1989142    
        67  -2421.5883      0             -4.9065942    
        68  -2421.6683      0              0.65290531   
        69  -2421.7422      0             -2.2351574    
        70  -2421.806       0             -1.2532486    
        71  -2421.8713      0              1.9063253    
        72  -2421.9564      0              7.7260034    
        73  -2422.0465      0              10.156572    
        74  -2422.1272      0              8.6815444    
        75  -2422.2376      0              5.230254     
        76  -2422.32        0              8.348282     
        77  -2422.3671      0              10.335676    
        78  -2422.4123      0              8.9350634    
        79  -2422.4549      0              7.3140654    
        80  -2422.4841      0              6.824865     
        81  -2422.5072      0              4.3465123    
        82  -2422.5254      0              3.8932056    
        83  -2422.541       0              4.3382281    
        84  -2422.5559      0              3.0147813    
        85  -2422.5714      0             -1.6157918    
        86  -2422.5853      0             -6.9290522    
        87  -2422.6056      0             -13.402126    
        88  -2422.634       0             -17.725997    
        89  -2422.6825      0             -23.327712    
        90  -2422.7448      0             -28.33018     
        91  -2422.835       0             -27.657546    
        92  -2422.9185      0             -20.108523    
        93  -2423.0051      0             -8.5375013    
        94  -2423.0556      0             -4.195126     
        95  -2423.1016      0              2.9721779    
        96  -2423.1344      0              3.0466902    
        97  -2423.1727      0              3.1620405    
        98  -2423.2165      0              4.8235103    
        99  -2423.2566      0              6.864491     
       100  -2423.2945      0              7.3552653    
       101  -2423.3363      0              8.5763152    
       102  -2423.3787      0              8.4732853    
       103  -2423.4133      0              8.5873084    
       104  -2423.454       0              10.820456    
       105  -2423.4927      0              15.508248    
       106  -2423.5514      0              15.136194    
       107  -2423.6159      0              11.403783    
       108  -2423.6854      0              11.009789    
       109  -2423.715       0              10.999352    
       110  -2423.7415      0              9.5866546    
       111  -2423.7703      0              7.9137353    
       112  -2423.8021      0              5.5218704    
       113  -2423.8206      0              5.8042322    
       114  -2423.8308      0              4.6960133    
       115  -2423.8412      0              2.598571     
       116  -2423.8508      0              2.2363243    
       117  -2423.8574      0              1.6998041    
       118  -2423.8621      0              1.2296893    
       119  -2423.8666      0              0.53912017   
       120  -2423.8717      0              0.60392994   
       121  -2423.8766      0              2.0098794    
       122  -2423.8816      0              1.3669844    
       123  -2423.8884      0             -0.28213391   
       124  -2423.8958      0             -0.43725537   
       125  -2423.9059      0             -0.94881975   
       126  -2423.9167      0             -1.1788693    
       127  -2423.9304      0             -0.62478961   
       128  -2423.9474      0             -3.3151232    
       129  -2423.9655      0             -4.9898221    
       130  -2423.989       0             -10.473756    
       131  -2424.0207      0             -16.334907    
       132  -2424.085       0             -19.190648    
       133  -2424.1972      0             -22.321658    
       134  -2424.299       0             -19.630797    
       135  -2424.3307      0             -16.440253    
       136  -2424.3841      0             -9.0055793    
       137  -2424.4176      0             -4.1935422    
       138  -2424.4433      0             -0.95224155   
       139  -2424.4609      0              3.2032489    
       140  -2424.4773      0              4.3175198    
       141  -2424.4921      0              3.7646682    
       142  -2424.5022      0              4.4198406    
       143  -2424.5118      0              6.4483659    
       144  -2424.5199      0              5.6963419    
       145  -2424.5267      0              3.0761999    
       146  -2424.5331      0              1.730406     
       147  -2424.5408      0              1.5423013    
       148  -2424.5479      0              1.1875246    
       149  -2424.5543      0              0.0833003    
       150  -2424.5613      0             -1.1300561    
       151  -2424.5681      0             -0.86112481   
       152  -2424.5736      0             -0.71513197   
       153  -2424.5793      0             -0.30302096   
       154  -2424.5833      0             -0.003354612  
       155  -2424.5874      0             -0.44618983   
       156  -2424.5906      0             -0.81542224   
       157  -2424.5933      0             -1.0116125    
       158  -2424.5959      0             -1.2819592    
       159  -2424.5985      0             -1.394679     
       160  -2424.6013      0             -1.1937736    
       161  -2424.6037      0             -0.34451412   
       162  -2424.6056      0              0.067225576  
       163  -2424.6073      0             -0.30014017   
       164  -2424.6086      0             -0.26753609   
       165  -2424.6097      0              0.46509616   
       166  -2424.6108      0              1.0722147    
       167  -2424.612       0              1.3337608    
       168  -2424.613       0              1.0448363    
       169  -2424.6139      0              1.4413447    
       170  -2424.6148      0              2.1316654    
       171  -2424.6156      0              2.1852537    
       172  -2424.6163      0              1.8826023    
       173  -2424.6169      0              1.5314943    
       174  -2424.6173      0              0.74104531   
       175  -2424.6178      0              0.33031257   
       176  -2424.6183      0             -0.060701043  
       177  -2424.6187      0             -0.35584729   
       178  -2424.6191      0             -0.50124739   
       179  -2424.6194      0             -0.41962088   
       180  -2424.6196      0             -0.51322393   
       181  -2424.6199      0             -0.8277569    
       182  -2424.6202      0             -1.0271877    
       183  -2424.6204      0             -0.79910562   
       184  -2424.6206      0             -0.93632748   
       185  -2424.6208      0             -0.98829006   
       186  -2424.6209      0             -0.85939172   
       187  -2424.6209      0             -0.56214015   
       188  -2424.621       0             -0.23553608   
       189  -2424.6212      0             -0.12566722   
       190  -2424.6213      0             -0.086538955  
       191  -2424.6214      0             -0.0070743171 
       192  -2424.6214      0             -0.055882971  
       193  -2424.6215      0             -0.068887482  
       194  -2424.6216      0             -0.1053892    
       195  -2424.6216      0             -0.23293574   
       196  -2424.6216      0             -0.23293574   
Loop time of 4.88845 on 1 procs for 196 steps with 360 atoms

97.4% CPU use with 1 MPI tasks x 1 OpenMP threads

Minimization stats:
  Stopping criterion = linesearch alpha is zero
  Energy initial, next-to-last, final = 
     -2345.04884442047  -2424.62163585544  -2424.62163585544
  Force two-norm initial, final = 38.653944 0.030933469
  Force max component initial, final = 4.8105509 0.0064689335
  Final line search alpha, max atom move = 7.6293945e-06 4.9354046e-08
  Iterations, force evaluations = 196 387

MPI task timing breakdown:
Section |  min time  |  avg time  |  max time  |%varavg| %total
---------------------------------------------------------------
Pair    | 0.56767    | 0.56767    | 0.56767    |   0.0 | 11.61
Kspace  | 4.3139     | 4.3139     | 4.3139     |   0.0 | 88.25
Neigh   | 0.0015052  | 0.0015052  | 0.0015052  |   0.0 |  0.03
Comm    | 0.00012686 | 0.00012686 | 0.00012686 |   0.0 |  0.00
Output  | 0.0020386  | 0.0020386  | 0.0020386  |   0.0 |  0.04
Modify  | 0          | 0          | 0          |   0.0 |  0.00
Other   |            | 0.003244   |            |       |  0.07

Nlocal:            360 ave         360 max         360 min
Histogram: 1 0 0 0 0 0 0 0 0 0
Nghost:              0 ave           0 max           0 min
Histogram: 1 0 0 0 0 0 0 0 0 0
Neighs:          55233 ave       55233 max       55233 min
Histogram: 1 0 0 0 0 0 0 0 0 0

Total # of neighbors = 55233
Ave neighs/atom = 153.425
Neighbor list builds = 6
Dangerous builds = 0

reset_timestep  0
write_dump      all atom dump/relaxed.dump.gz

# read_dump       relaxed_disl.dump.gz 0 x y z box yes replace yes

log             log.md.npt
