units           metal
boundary        p p p
atom_style      charge
variable        etol_minimize equal 0.0
variable        ftol_minimize equal 1e-11
variable        maxiter_minimize equal 100000000
variable        maxeval_minimize equal 10000000000
variable        temp equal 300
variable        seed equal 123456

read_data       combined_spheres.lmp
Reading data file ...
  orthogonal box = (-30 -30 -30) to (52 30 30)
  1 by 1 by 1 MPI processor grid
  reading atoms ...
  720 atoms
  read_data CPU = 0.003 seconds

# Buckingham parameters for Fe2O3 Potentials:
# (Liu et al., 2020) https://doi.org/10.1016/j.powtec.2020.03.043
pair_style      buck/coul/long/cs 12.0
kspace_style    ewald   1.0e-6
pair_coeff      1 2     62775.704   0.165   32.055      # Fe-O
pair_coeff      2 2     3834.644    0.305   123.029     #  O-O
pair_coeff      1 1     2500.943    0.029   6.383       # Fe-Fe
mass            1       55.84500000                     # Fe
mass            2       15.99900000                     # O

set             type    1           charge  1.311
Setting atom values ...
  288 settings made for charge
set             type    2           charge -0.874
Setting atom values ...
  432 settings made for charge

thermo          1
# thermo_style    custom step etotal epair evdwl ecoul elong ebond press
thermo_style    custom step etotal temp press

neigh_modify    every 1 delay 0 check yes
# dump            minimization all custom 100 data/relax_disl.*.dump.gz id type x y z
# dump_modify     minimization first no format float %23.17e

minimize	    ${etol_minimize} ${ftol_minimize} ${maxiter_minimize} ${maxeval_minimize}
minimize	    0 ${ftol_minimize} ${maxiter_minimize} ${maxeval_minimize}
minimize	    0 1e-11 ${maxiter_minimize} ${maxeval_minimize}
minimize	    0 1e-11 100000000 ${maxeval_minimize}
minimize	    0 1e-11 100000000 10000000000
Ewald initialization ...
  using 12-bit tables for long-range coulomb (src/kspace.cpp:342)
  G vector (1/distance) = 0.26866751
  estimated absolute RMS force accuracy = 1.680752e-05
  estimated relative force accuracy = 1.1672176e-06
  KSpace vectors: actual max1d max3d = 14013 23 51911
                  kxmax kymax kzmax  = 23 17 17
Generated 0 of 1 mixed pair_coeff terms from geometric mixing rule
Neighbor list info ...
  update: every = 1 steps, delay = 0 steps, check = yes
  max neighbors/atom: 2000, page size: 100000
  master list distance cutoff = 14
  ghost atom cutoff = 14
  binsize = 7, bins = 12 9 9
  1 neighbor lists, perpetual/occasional/extra = 1 0 0
  (1) pair buck/coul/long/cs, perpetual
      attributes: half, newton on
      pair build: half/bin/atomonly/newton
      stencil: half/bin/3d
      bin: standard
Per MPI rank memory allocation (min/avg/max) = 46.47 | 46.47 | 46.47 Mbytes
   Step         TotEng          Temp          Press     
         0  -4692.0384      0             -1319.352     
         1  -4741.5134      0             -1250.5898    
         2  -4772.2631      0             -966.87154    
         3  -4793.9277      0             -547.05924    
         4  -4805.3016      0             -429.83735    
         5  -4811.4591      0             -108.65844    
         6  -4817.4023      0              7.6850019    
         7  -4818.9836      0             -86.371763    
         8  -4821.8021      0             -117.66989    
         9  -4823.5665      0             -51.427985    
        10  -4825.6992      0             -11.754829    
        11  -4827.0275      0             -28.580828    
        12  -4828.6078      0             -32.134277    
        13  -4829.5955      0             -19.676296    
        14  -4830.951       0              5.162672     
        15  -4831.9511      0             -20.575434    
        16  -4832.8703      0             -10.853075    
        17  -4833.6955      0             -0.084115849  
        18  -4834.2609      0              24.982687    
        19  -4835.1987      0              46.212729    
        20  -4835.6551      0              38.768776    
        21  -4836.0569      0              2.8786114    
        22  -4836.592       0             -1.0384298    
        23  -4836.8833      0              24.429346    
        24  -4837.1394      0              35.426793    
        25  -4837.3185      0              29.276843    
        26  -4837.5703      0              10.203722    
        27  -4837.8318      0             -17.203975    
        28  -4838.2351      0             -22.074413    
        29  -4838.688       0             -7.1301873    
        30  -4839.0285      0             -8.0702972    
        31  -4839.4755      0             -31.455929    
        32  -4839.8786      0             -37.755404    
        33  -4840.1336      0             -34.250537    
        34  -4840.2896      0             -30.675501    
        35  -4840.4368      0             -25.004012    
        36  -4840.673       0             -20.032671    
        37  -4840.962       0             -26.311429    
        38  -4841.1723      0             -24.388992    
        39  -4841.3211      0             -27.676983    
        40  -4841.4884      0             -36.048861    
        41  -4841.7062      0             -37.713188    
        42  -4841.9579      0             -39.086788    
        43  -4842.1386      0             -36.625033    
        44  -4842.3475      0             -34.767749    
        45  -4842.5362      0             -30.098065    
        46  -4842.7537      0             -29.590078    
        47  -4842.9181      0             -38.405234    
        48  -4843.0608      0             -43.277711    
        49  -4843.1572      0             -44.064007    
        50  -4843.2451      0             -42.821716    
        51  -4843.3386      0             -42.536401    
        52  -4843.4449      0             -46.183248    
        53  -4843.5788      0             -43.808262    
        54  -4843.7505      0             -47.879678    
        55  -4843.9619      0             -54.695851    
        56  -4844.2437      0             -56.266758    
        57  -4844.4766      0             -60.471073    
        58  -4844.6598      0             -58.037967    
        59  -4844.8164      0             -53.920701    
        60  -4844.9649      0             -51.537508    
        61  -4845.0983      0             -47.614781    
        62  -4845.2065      0             -46.957887    
        63  -4845.2922      0             -45.96019     
        64  -4845.3933      0             -46.899926    
        65  -4845.4891      0             -43.423068    
        66  -4845.5773      0             -41.134451    
        67  -4845.6463      0             -40.361626    
        68  -4845.7189      0             -41.412266    
        69  -4845.7903      0             -39.165098    
        70  -4845.8663      0             -39.808229    
        71  -4845.9545      0             -45.022162    
        72  -4846.0392      0             -47.454732    
        73  -4846.1452      0             -50.742071    
        74  -4846.2885      0             -49.866948    
        75  -4846.4352      0             -45.86564     
        76  -4846.5446      0             -44.749479    
        77  -4846.6379      0             -41.575079    
        78  -4846.7236      0             -40.653199    
        79  -4846.8019      0             -40.546093    
        80  -4846.8953      0             -40.24555     
        81  -4847.0047      0             -39.862394    
        82  -4847.0851      0             -40.062759    
        83  -4847.1472      0             -38.495106    
        84  -4847.1947      0             -35.640449    
        85  -4847.2397      0             -35.478961    
        86  -4847.2795      0             -37.872582    
        87  -4847.3224      0             -40.667423    
        88  -4847.365       0             -42.209068    
        89  -4847.3979      0             -41.908235    
        90  -4847.4236      0             -41.616761    
        91  -4847.4494      0             -41.28748     
        92  -4847.478       0             -41.061191    
        93  -4847.5143      0             -42.003581    
        94  -4847.5585      0             -43.071978    
        95  -4847.6355      0             -42.370358    
        96  -4847.7165      0             -39.711593    
        97  -4847.7647      0             -38.165384    
        98  -4847.8161      0             -37.199229    
        99  -4847.8633      0             -38.565262    
       100  -4847.903       0             -40.364539    
       101  -4847.9425      0             -43.64478     
       102  -4847.9758      0             -48.729105    
       103  -4848.0035      0             -52.322056    
       104  -4848.0328      0             -55.199132    
       105  -4848.0568      0             -56.876473    
       106  -4848.074       0             -58.345016    
       107  -4848.0887      0             -59.57835     
       108  -4848.1023      0             -60.626692    
       109  -4848.1131      0             -59.387531    
       110  -4848.1238      0             -58.428117    
       111  -4848.1343      0             -56.468219    
       112  -4848.1436      0             -53.496447    
       113  -4848.1537      0             -51.949029    
       114  -4848.1635      0             -50.762538    
       115  -4848.1761      0             -48.717958    
       116  -4848.189       0             -47.29016     
       117  -4848.2051      0             -46.732001    
       118  -4848.2277      0             -48.207535    
       119  -4848.2666      0             -50.836425    
       120  -4848.3385      0             -54.510242    
       121  -4848.4505      0             -57.331225    
       122  -4848.5095      0             -57.891746    
       123  -4848.6445      0             -58.232696    
       124  -4848.7591      0             -57.889862    
       125  -4848.8342      0             -57.799578    
       126  -4848.9134      0             -54.399121    
       127  -4848.9892      0             -52.988063    
       128  -4849.0521      0             -53.366595    
       129  -4849.1014      0             -51.494076    
       130  -4849.1505      0             -50.549863    
       131  -4849.1932      0             -51.340552    
       132  -4849.2422      0             -53.424833    
       133  -4849.297       0             -52.061498    
       134  -4849.373       0             -46.434716    
       135  -4849.463       0             -46.135915    
       136  -4849.5932      0             -50.755509    
       137  -4849.7434      0             -51.915243    
       138  -4849.8938      0             -47.72304     
       139  -4850.0194      0             -44.334202    
       140  -4850.1123      0             -48.506649    
       141  -4850.157       0             -49.582787    
       142  -4850.2047      0             -45.494874    
       143  -4850.2579      0             -42.73275     
       144  -4850.2934      0             -43.991968    
       145  -4850.3144      0             -45.777007    
       146  -4850.3314      0             -47.469385    
       147  -4850.3496      0             -47.662994    
       148  -4850.3627      0             -48.343031    
       149  -4850.3717      0             -51.007357    
       150  -4850.38        0             -52.997735    
       151  -4850.3881      0             -53.073027    
       152  -4850.3973      0             -52.812563    
       153  -4850.4078      0             -53.631495    
       154  -4850.4196      0             -54.615261    
       155  -4850.431       0             -54.014157    
       156  -4850.4446      0             -53.750403    
       157  -4850.4628      0             -55.335256    
       158  -4850.4867      0             -56.801335    
       159  -4850.5166      0             -58.232222    
       160  -4850.5662      0             -62.108899    
       161  -4850.6396      0             -66.847215    
       162  -4850.7075      0             -65.759722    
       163  -4850.7356      0             -64.353423    
       164  -4850.771       0             -63.482344    
       165  -4850.8136      0             -59.138812    
       166  -4850.8598      0             -54.586178    
       167  -4850.8911      0             -53.926841    
       168  -4850.9096      0             -52.360702    
       169  -4850.9242      0             -51.031251    
       170  -4850.9424      0             -51.136135    
       171  -4850.9593      0             -49.070426    
       172  -4850.9763      0             -49.143433    
       173  -4850.9906      0             -49.853699    
       174  -4851.0036      0             -48.737948    
       175  -4851.0168      0             -48.253278    
       176  -4851.0301      0             -46.841528    
       177  -4851.0416      0             -47.36184     
       178  -4851.0522      0             -48.895522    
       179  -4851.0634      0             -50.31749     
       180  -4851.0729      0             -51.004003    
       181  -4851.0812      0             -50.744476    
       182  -4851.0891      0             -50.719726    
       183  -4851.0976      0             -51.812173    
       184  -4851.1052      0             -51.067976    
       185  -4851.1136      0             -49.41066     
       186  -4851.1235      0             -48.697239    
       187  -4851.1357      0             -48.435132    
       188  -4851.1477      0             -47.92469     
       189  -4851.1608      0             -46.68739     
       190  -4851.1787      0             -44.436267    
       191  -4851.2004      0             -42.500807    
       192  -4851.2234      0             -42.606777    
       193  -4851.2489      0             -43.054417    
       194  -4851.2793      0             -44.484568    
       195  -4851.3251      0             -48.379453    
       196  -4851.3796      0             -49.628135    
       197  -4851.4356      0             -50.046785    
       198  -4851.4881      0             -49.620056    
       199  -4851.5643      0             -47.899783    
       200  -4851.631       0             -47.925038    
       201  -4851.7011      0             -48.086926    
       202  -4851.7695      0             -50.264383    
       203  -4851.8381      0             -53.801141    
       204  -4851.9083      0             -55.161378    
       205  -4851.9757      0             -57.359607    
       206  -4852.0472      0             -60.919365    
       207  -4852.1254      0             -60.684184    
       208  -4852.2004      0             -60.563021    
       209  -4852.2808      0             -61.040519    
       210  -4852.3732      0             -63.560577    
       211  -4852.4791      0             -66.426799    
       212  -4852.5952      0             -65.100356    
       213  -4852.7187      0             -64.073272    
       214  -4852.8406      0             -66.095151    
       215  -4852.9648      0             -65.242816    
       216  -4853.0549      0             -65.922068    
       217  -4853.1382      0             -67.340857    
       218  -4853.1863      0             -64.011824    
       219  -4853.2398      0             -59.604559    
       220  -4853.2964      0             -59.878375    
       221  -4853.3431      0             -62.080301    
       222  -4853.3844      0             -61.897355    
       223  -4853.4307      0             -62.605726    
       224  -4853.4758      0             -66.262987    
       225  -4853.5217      0             -69.420101    
       226  -4853.5742      0             -69.377506    
       227  -4853.6528      0             -68.201554    
       228  -4853.7404      0             -68.829077    
       229  -4853.7951      0             -68.461363    
       230  -4853.8413      0             -67.946334    
       231  -4853.8931      0             -67.807227    
       232  -4853.9409      0             -67.495734    
       233  -4853.9859      0             -67.180074    
       234  -4854.0404      0             -68.123504    
       235  -4854.11        0             -69.036105    
       236  -4854.1969      0             -71.998467    
       237  -4854.2938      0             -76.191089    
       238  -4854.3638      0             -76.369486    
       239  -4854.4487      0             -70.806271    
       240  -4854.5505      0             -66.44597     
       241  -4854.6758      0             -64.971757    
       242  -4854.783       0             -65.188843    
       243  -4854.9479      0             -67.441054    
       244  -4855.1473      0             -74.253255    
       245  -4855.3379      0             -77.443578    
       246  -4855.4858      0             -77.91319     
       247  -4855.5777      0             -75.535896    
       248  -4855.6375      0             -71.837095    
       249  -4855.7055      0             -68.260473    
       250  -4855.7563      0             -63.679255    
       251  -4855.8204      0             -57.696149    
       252  -4855.8807      0             -53.830639    
       253  -4855.9378      0             -52.743955    
       254  -4855.9895      0             -52.137825    
       255  -4856.0291      0             -50.538162    
       256  -4856.0765      0             -47.471468    
       257  -4856.1359      0             -47.573868    
       258  -4856.2         0             -48.273082    
       259  -4856.2617      0             -48.280337    
       260  -4856.3275      0             -44.01613     
       261  -4856.4033      0             -41.524598    
       262  -4856.4731      0             -42.836861    
       263  -4856.5346      0             -39.577116    
       264  -4856.5992      0             -38.000264    
       265  -4856.6526      0             -36.8654      
       266  -4856.7031      0             -34.229573    
       267  -4856.754       0             -33.634229    
       268  -4856.8202      0             -34.625095    
       269  -4856.9045      0             -39.233746    
       270  -4856.997       0             -41.388215    
       271  -4857.0914      0             -36.426489    
       272  -4857.1668      0             -32.364537    
       273  -4857.2358      0             -32.934885    
       274  -4857.3031      0             -31.409457    
       275  -4857.3634      0             -28.155172    
       276  -4857.4231      0             -24.943586    
       277  -4857.4864      0             -21.792726    
       278  -4857.5541      0             -16.536562    
       279  -4857.6265      0             -14.3726      
       280  -4857.7167      0             -12.960768    
       281  -4857.7895      0             -10.74994     
       282  -4857.866       0             -5.7838395    
       283  -4857.9502      0             -1.2941273    
       284  -4858.0444      0             -1.7620321    
       285  -4858.1655      0             -7.870486     
       286  -4858.3139      0             -10.248558    
       287  -4858.4805      0             -14.687007    
       288  -4858.6431      0             -19.03364     
       289  -4858.7168      0             -19.813075    
       290  -4858.7904      0             -16.397582    
       291  -4858.8741      0             -14.307652    
       292  -4858.9435      0             -13.708032    
       293  -4859.0004      0             -10.462505    
       294  -4859.0593      0             -10.231768    
       295  -4859.1131      0             -15.250253    
       296  -4859.1652      0             -20.184997    
       297  -4859.2239      0             -23.221909    
       298  -4859.2799      0             -24.872661    
       299  -4859.3389      0             -25.968973    
       300  -4859.3936      0             -28.085487    
       301  -4859.4331      0             -25.684145    
       302  -4859.478       0             -23.16168     
       303  -4859.533       0             -19.361671    
       304  -4859.6069      0             -14.366716    
       305  -4859.7104      0             -10.942051    
       306  -4859.8827      0             -11.057009    
       307  -4860.0922      0             -12.558516    
       308  -4860.2963      0             -13.102866    
       309  -4860.4661      0             -12.512212    
       310  -4860.58        0             -6.517669     
       311  -4860.6398      0             -2.8024398    
       312  -4860.6805      0             -3.8360052    
       313  -4860.703       0             -3.6670634    
       314  -4860.7361      0             -4.963795     
       315  -4860.76        0             -5.5830826    
       316  -4860.8066      0             -6.4676647    
       317  -4860.8703      0             -8.6550653    
       318  -4860.9227      0             -12.114559    
       319  -4860.9794      0             -13.842828    
       320  -4861.0791      0             -18.123237    
       321  -4861.1913      0             -24.836773    
       322  -4861.2543      0             -25.676781    
       323  -4861.348       0             -21.643751    
       324  -4861.4606      0             -17.277853    
       325  -4861.5515      0             -15.109073    
       326  -4861.6068      0             -14.824842    
       327  -4861.64        0             -13.198936    
       328  -4861.6811      0             -11.217606    
       329  -4861.7294      0             -6.8695205    
       330  -4861.792       0             -3.8500791    
       331  -4861.858       0             -1.5460459    
       332  -4861.9458      0              1.4653327    
       333  -4862.081       0              2.0486225    
       334  -4862.1681      0              3.5531261    
       335  -4862.2611      0              5.8721464    
       336  -4862.3383      0              4.1757727    
       337  -4862.4067      0              4.2595745    
       338  -4862.4546      0              4.0529427    
       339  -4862.5109      0              4.1108882    
       340  -4862.5809      0              1.8657605    
       341  -4862.6396      0              2.3849262    
       342  -4862.6982      0              2.8192691    
       343  -4862.7337      0              0.94091919   
       344  -4862.768       0              2.5288357    
       345  -4862.8078      0              4.3402042    
       346  -4862.8476      0              2.9893571    
       347  -4862.887       0             -2.5233477    
       348  -4862.9233      0             -7.0682672    
       349  -4862.9581      0             -7.9232966    
       350  -4862.9993      0             -5.5528788    
       351  -4863.0437      0             -6.2258749    
       352  -4863.0787      0             -6.0392341    
       353  -4863.1047      0             -4.9745692    
       354  -4863.132       0             -3.1744479    
       355  -4863.1681      0             -1.4350485    
       356  -4863.2179      0              4.0657405    
       357  -4863.2542      0              7.3397663    
       358  -4863.2826      0              10.068659    
       359  -4863.3013      0              11.153287    
       360  -4863.317       0              11.71566     
       361  -4863.3317      0              10.284048    
       362  -4863.345       0              8.5843185    
       363  -4863.3545      0              7.3395655    
       364  -4863.3643      0              5.9307225    
       365  -4863.3725      0              5.0992152    
       366  -4863.3801      0              4.9315746    
       367  -4863.3871      0              3.9161211    
       368  -4863.3947      0              3.1624096    
       369  -4863.4022      0              2.7095749    
       370  -4863.4098      0              1.4899976    
       371  -4863.4179      0              1.4778292    
       372  -4863.4292      0              1.5885459    
       373  -4863.4413      0              0.77448439   
       374  -4863.4571      0              1.3659622    
       375  -4863.4698      0              1.5290854    
       376  -4863.4801      0              1.6435402    
       377  -4863.4886      0              2.8775981    
       378  -4863.4947      0              4.7267221    
       379  -4863.5         0              5.7829792    
       380  -4863.5044      0              6.8470419    
       381  -4863.5093      0              7.7640038    
       382  -4863.5148      0              8.1187974    
       383  -4863.5189      0              8.7498611    
       384  -4863.5226      0              8.9724449    
       385  -4863.5262      0              9.2910903    
       386  -4863.5295      0              9.3022363    
       387  -4863.5331      0              9.6762283    
       388  -4863.5361      0              10.082458    
       389  -4863.5395      0              10.155907    
       390  -4863.5426      0              9.8549785    
       391  -4863.5459      0              8.446274     
       392  -4863.5487      0              6.8415202    
       393  -4863.5532      0              5.2185417    
       394  -4863.5577      0              3.6460128    
       395  -4863.5624      0              2.6534694    
       396  -4863.5671      0              0.82875933   
       397  -4863.5723      0             -0.94870582   
       398  -4863.5778      0             -1.0999169    
       399  -4863.5832      0             -0.91747604   
       400  -4863.5888      0             -0.59752011   
       401  -4863.5933      0             -0.4330656    
       402  -4863.5974      0             -0.072274901  
       403  -4863.6021      0             -0.027248389  
       404  -4863.6075      0              0.60257967   
       405  -4863.6127      0              1.305183     
       406  -4863.6183      0              1.3384943    
       407  -4863.624       0              2.2359472    
       408  -4863.6293      0              2.2570403    
       409  -4863.6359      0              2.0059014    
       410  -4863.6439      0              1.8041469    
       411  -4863.6555      0              0.31541067   
       412  -4863.6688      0             -1.5186471    
       413  -4863.6807      0             -2.7071851    
       414  -4863.69        0             -3.2618268    
       415  -4863.7005      0             -4.5888851    
       416  -4863.7085      0             -5.5798946    
       417  -4863.7164      0             -7.1950037    
       418  -4863.7229      0             -7.9253967    
       419  -4863.7295      0             -7.6180022    
       420  -4863.7353      0             -6.9229727    
       421  -4863.7412      0             -6.1936616    
       422  -4863.7467      0             -4.9006119    
       423  -4863.753       0             -4.2644685    
       424  -4863.762       0             -2.963583     
       425  -4863.774       0             -2.572859     
       426  -4863.7881      0             -1.2355202    
       427  -4863.8011      0              0.26558213   
       428  -4863.8133      0              0.91841024   
       429  -4863.8249      0              0.98987323   
       430  -4863.8331      0              0.69394195   
       431  -4863.8412      0             -0.96644312   
       432  -4863.8484      0             -1.8652958    
       433  -4863.8539      0             -2.8284566    
       434  -4863.8591      0             -3.4378914    
       435  -4863.864       0             -4.2693713    
       436  -4863.8686      0             -5.2062342    
       437  -4863.8726      0             -5.505422     
       438  -4863.8759      0             -5.3260411    
       439  -4863.8788      0             -5.4987888    
       440  -4863.8813      0             -5.5007467    
       441  -4863.8832      0             -5.3829256    
       442  -4863.8851      0             -4.6842451    
       443  -4863.8868      0             -4.3572523    
       444  -4863.888       0             -4.2905316    
       445  -4863.889       0             -4.2744847    
       446  -4863.8901      0             -3.8410533    
       447  -4863.8912      0             -3.5535048    
       448  -4863.892       0             -3.1764005    
       449  -4863.8929      0             -3.0149248    
       450  -4863.8937      0             -2.8193006    
       451  -4863.8946      0             -2.6141761    
       452  -4863.8954      0             -2.6471861    
       453  -4863.8964      0             -2.8332601    
       454  -4863.8971      0             -2.4815515    
       455  -4863.8981      0             -2.0681079    
       456  -4863.8991      0             -1.7235786    
       457  -4863.9001      0             -1.512368     
       458  -4863.9015      0             -0.8263439    
       459  -4863.903       0             -0.36514536   
       460  -4863.9046      0              0.022735392  
       461  -4863.9072      0              0.32309901   
       462  -4863.9113      0              1.5828347    
       463  -4863.9164      0              2.4729894    
       464  -4863.9229      0              2.9060001    
       465  -4863.9293      0              2.7647945    
       466  -4863.9362      0              3.7750628    
       467  -4863.9431      0              4.4144474    
       468  -4863.9485      0              4.8059865    
       469  -4863.9541      0              4.649781     
       470  -4863.9586      0              4.6644558    
       471  -4863.9628      0              4.2724203    
       472  -4863.9666      0              4.3200108    
       473  -4863.9704      0              3.902281     
       474  -4863.9742      0              3.523621     
       475  -4863.9789      0              3.3171771    
       476  -4863.9832      0              3.0693116    
       477  -4863.9883      0              1.7545276    
       478  -4863.995       0              1.2337404    
       479  -4864.0009      0              0.37437247   
       480  -4864.008       0             -0.21326339   
       481  -4864.0154      0              0.35471199   
       482  -4864.0225      0              2.0098852    
       483  -4864.029       0              3.1583428    
       484  -4864.0351      0              4.2885075    
       485  -4864.0409      0              4.3057611    
       486  -4864.0466      0              5.0694306    
       487  -4864.0515      0              5.8711712    
       488  -4864.056       0              6.7238032    
       489  -4864.0603      0              7.0382335    
       490  -4864.0643      0              7.4232808    
       491  -4864.0682      0              7.4185107    
       492  -4864.0715      0              7.5411635    
       493  -4864.0749      0              7.3025309    
       494  -4864.0776      0              7.4548413    
       495  -4864.0803      0              7.1894049    
       496  -4864.0825      0              6.5235735    
       497  -4864.0849      0              5.0030863    
       498  -4864.0869      0              3.3861064    
       499  -4864.0891      0              2.0461201    
       500  -4864.0909      0              0.94794824   
       501  -4864.0928      0             -0.39073702   
       502  -4864.0949      0             -1.6223234    
       503  -4864.0967      0             -2.8747698    
       504  -4864.0986      0             -3.6931632    
       505  -4864.1005      0             -4.4694732    
       506  -4864.1024      0             -5.0479616    
       507  -4864.1043      0             -5.3161008    
       508  -4864.1062      0             -5.1146919    
       509  -4864.1083      0             -5.1222359    
       510  -4864.1101      0             -4.6943541    
       511  -4864.1121      0             -4.0227181    
       512  -4864.1137      0             -3.0094928    
       513  -4864.1154      0             -2.1687318    
       514  -4864.1169      0             -1.3768656    
       515  -4864.1184      0             -0.74382405   
       516  -4864.1197      0             -0.090382826  
       517  -4864.1214      0              0.20674141   
       518  -4864.1229      0              0.70763339   
       519  -4864.1244      0              0.72283329   
       520  -4864.1257      0              0.12800877   
       521  -4864.127       0             -0.89449194   
       522  -4864.1282      0             -1.4545426    
       523  -4864.1295      0             -1.9885864    
       524  -4864.1308      0             -2.7314194    
       525  -4864.1322      0             -3.9431919    
       526  -4864.1335      0             -4.4465175    
       527  -4864.1347      0             -4.7813509    
       528  -4864.1361      0             -5.0595447    
       529  -4864.1373      0             -5.0853134    
       530  -4864.1387      0             -4.3398071    
       531  -4864.1402      0             -3.6230103    
       532  -4864.1411      0             -2.8902598    
       533  -4864.1422      0             -1.9397636    
       534  -4864.1433      0             -0.65574097   
       535  -4864.1444      0              0.30984175   
       536  -4864.1455      0              1.4305979    
       537  -4864.1465      0              2.0588755    
       538  -4864.1474      0              2.3347396    
       539  -4864.1485      0              2.6873712    
       540  -4864.1491      0              2.8677278    
       541  -4864.1498      0              2.6547067    
       542  -4864.1504      0              2.8463505    
       543  -4864.1513      0              2.8791081    
       544  -4864.1521      0              2.5784207    
       545  -4864.1529      0              1.9746917    
       546  -4864.1538      0              1.5169385    
       547  -4864.1546      0              1.0537749    
       548  -4864.1554      0              0.58020956   
       549  -4864.1563      0             -0.24280504   
       550  -4864.157       0             -0.69482556   
       551  -4864.1578      0             -0.81275501   
       552  -4864.1586      0             -1.1696282    
       553  -4864.1594      0             -1.6244909    
       554  -4864.16        0             -1.5441324    
       555  -4864.1607      0             -1.4042952    
       556  -4864.1614      0             -1.2644634    
       557  -4864.1622      0             -1.3052353    
       558  -4864.1631      0             -1.007368     
       559  -4864.164       0             -0.50127151   
       560  -4864.1647      0              0.12641924   
       561  -4864.1658      0              0.38643153   
       562  -4864.1667      0              0.84203211   
       563  -4864.1677      0              1.3768743    
       564  -4864.1687      0              1.8388851    
       565  -4864.1699      0              1.8686717    
       566  -4864.1711      0              2.2055963    
       567  -4864.172       0              2.2513284    
       568  -4864.173       0              2.2062235    
       569  -4864.1743      0              2.1406466    
       570  -4864.1755      0              2.1442244    
       571  -4864.1766      0              1.895881     
       572  -4864.1775      0              1.8659259    
       573  -4864.1786      0              1.3621543    
       574  -4864.1795      0              0.53577621   
       575  -4864.1805      0             -0.36979435   
       576  -4864.1815      0             -1.1255771    
       577  -4864.1823      0             -1.885016     
       578  -4864.1829      0             -2.3760192    
       579  -4864.1839      0             -2.8389558    
       580  -4864.1846      0             -3.1565602    
       581  -4864.1857      0             -3.6289984    
       582  -4864.1865      0             -3.7936723    
       583  -4864.1872      0             -3.990865     
       584  -4864.1879      0             -4.2209199    
       585  -4864.1886      0             -4.4807083    
       586  -4864.1896      0             -4.688731     
       587  -4864.1903      0             -4.9690306    
       588  -4864.1911      0             -4.8955572    
       589  -4864.1922      0             -4.851413     
       590  -4864.1932      0             -4.5469109    
       591  -4864.1945      0             -4.1819859    
       592  -4864.1955      0             -3.6110426    
       593  -4864.1967      0             -3.1470245    
       594  -4864.198       0             -2.6928348    
       595  -4864.1995      0             -2.7651749    
       596  -4864.2006      0             -2.6133319    
       597  -4864.2018      0             -2.5035658    
       598  -4864.2031      0             -2.217806     
       599  -4864.204       0             -2.0129764    
       600  -4864.2049      0             -1.9564692    
       601  -4864.2058      0             -1.9891828    
       602  -4864.2067      0             -1.8416606    
       603  -4864.2079      0             -2.1875106    
       604  -4864.2086      0             -2.5059012    
       605  -4864.2095      0             -2.6030424    
       606  -4864.2106      0             -2.6195315    
       607  -4864.2114      0             -2.9586581    
       608  -4864.2123      0             -3.250181     
       609  -4864.2134      0             -3.4427889    
       610  -4864.2143      0             -3.3798481    
       611  -4864.2152      0             -3.7070805    
       612  -4864.2159      0             -3.8483639    
       613  -4864.2166      0             -3.7876605    
       614  -4864.2174      0             -3.5173176    
       615  -4864.2182      0             -3.3464745    
       616  -4864.2188      0             -3.1494184    
       617  -4864.2195      0             -2.9869671    
       618  -4864.22        0             -2.6542322    
       619  -4864.2206      0             -2.4838922    
       620  -4864.2214      0             -1.9961707    
       621  -4864.2222      0             -1.5729968    
       622  -4864.2229      0             -1.4728168    
       623  -4864.2239      0             -1.5073019    
       624  -4864.2247      0             -1.6263406    
       625  -4864.2257      0             -1.9416061    
       626  -4864.2265      0             -1.9865814    
       627  -4864.2275      0             -2.2378846    
       628  -4864.2282      0             -1.9553898    
       629  -4864.2291      0             -1.8145763    
       630  -4864.2301      0             -1.9182621    
       631  -4864.231       0             -1.9203948    
       632  -4864.232       0             -1.3915861    
       633  -4864.2328      0             -1.0453944    
       634  -4864.2336      0             -0.73573867   
       635  -4864.2344      0             -0.44751053   
       636  -4864.2354      0              0.30642868   
       637  -4864.2359      0              0.95284673   
       638  -4864.2367      0              1.1299627    
       639  -4864.2372      0              1.0564613    
       640  -4864.2377      0              1.3241275    
       641  -4864.2384      0              1.5209473    
       642  -4864.2391      0              1.7192901    
       643  -4864.2395      0              1.7986596    
       644  -4864.2403      0              1.9932754    
       645  -4864.2409      0              2.059326     
       646  -4864.2415      0              1.9981282    
       647  -4864.2419      0              1.8880059    
       648  -4864.2424      0              2.0490656    
       649  -4864.243       0              1.8946763    
       650  -4864.2432      0              1.5044036    
       651  -4864.2436      0              1.109079     
       652  -4864.2442      0              0.71554568   
       653  -4864.2444      0              0.14224803   
       654  -4864.2447      0             -0.28796742   
       655  -4864.245       0             -0.74283878   
       656  -4864.2455      0             -1.170326     
       657  -4864.2459      0             -1.6226985    
       658  -4864.2463      0             -2.0326472    
       659  -4864.2467      0             -2.1092913    
       660  -4864.247       0             -1.9003591    
       661  -4864.2474      0             -1.7948516    
       662  -4864.2477      0             -1.3863488    
       663  -4864.2482      0             -1.0290055    
       664  -4864.2486      0             -0.67989309   
       665  -4864.2489      0             -0.35617933   
       666  -4864.2491      0              0.010373274  
       667  -4864.2494      0              0.21216106   
       668  -4864.2498      0              0.39419371   
       669  -4864.25        0              0.4043398    
       670  -4864.2503      0              0.38748925   
       671  -4864.2506      0              0.15089175   
       672  -4864.2508      0             -0.042010481  
       673  -4864.2511      0             -0.23881847   
       674  -4864.2513      0             -0.44863501   
       675  -4864.2517      0             -0.60623961   
       676  -4864.2519      0             -0.74765068   
       677  -4864.2521      0             -1.1127532    
       678  -4864.2522      0             -1.1173416    
       679  -4864.2523      0             -1.0354076    
       680  -4864.2524      0             -0.93865987   
       681  -4864.2526      0             -0.84682098   
       682  -4864.2528      0             -0.60622449   
       683  -4864.2529      0             -0.32520593   
       684  -4864.253       0             -0.1282144    
       685  -4864.2531      0             -0.034365882  
       686  -4864.2532      0              0.18438498   
       687  -4864.2534      0              0.28800023   
       688  -4864.2536      0              0.30201431   
       689  -4864.2537      0              0.28457821   
       690  -4864.2538      0              0.31399095   
       691  -4864.2539      0              0.27961093   
       692  -4864.2541      0              0.20965221   
       693  -4864.2543      0              0.10730091   
       694  -4864.2545      0              0.090263265  
       695  -4864.2547      0             -0.04589966   
       696  -4864.2548      0             -0.14019203   
       697  -4864.255       0             -0.20190147   
       698  -4864.2552      0             -0.27439267   
       699  -4864.2554      0             -0.20216167   
       700  -4864.2555      0             -0.14794308   
       701  -4864.2557      0             -0.1974548    
       702  -4864.2557      0              0.010292487  
       703  -4864.2559      0              0.088990053  
       704  -4864.2561      0              0.16861098   
       705  -4864.2563      0              0.31949771   
       706  -4864.2567      0              0.21304416   
       707  -4864.2569      0              0.091652892  
       708  -4864.2571      0              0.043767857  
       709  -4864.2574      0             -0.068443045  
       710  -4864.2576      0             -0.15219744   
       711  -4864.2578      0             -0.46300326   
       712  -4864.2582      0             -0.61647984   
       713  -4864.2584      0             -0.74776693   
       714  -4864.2585      0             -0.83795668   
       715  -4864.2588      0             -0.93768851   
       716  -4864.259       0             -0.92317516   
       717  -4864.2592      0             -0.84417664   
       718  -4864.2593      0             -0.75186883   
       719  -4864.2595      0             -0.72076292   
       720  -4864.2596      0             -0.49881847   
       721  -4864.2598      0             -0.23161261   
       722  -4864.26        0             -0.029927379  
       723  -4864.2602      0             -0.10054748   
       724  -4864.2603      0             -0.032184759  
       725  -4864.2605      0              0.055939133  
       726  -4864.2607      0             -0.058361629  
       727  -4864.2609      0             -0.17812434   
       728  -4864.2611      0             -0.20726846   
       729  -4864.2612      0             -0.33842598   
       730  -4864.2614      0             -0.45811844   
       731  -4864.2617      0             -0.69051417   
       732  -4864.2619      0             -0.8858085    
       733  -4864.2621      0             -1.1463957    
       734  -4864.2624      0             -1.3617734    
       735  -4864.2627      0             -1.4605181    
       736  -4864.263       0             -1.4460659    
       737  -4864.2632      0             -1.8128085    
       738  -4864.2634      0             -2.0621502    
       739  -4864.2636      0             -2.1341149    
       740  -4864.264       0             -2.3578841    
       741  -4864.264       0             -2.695294     
       742  -4864.2644      0             -2.8746164    
       743  -4864.2648      0             -3.2868381    
       744  -4864.2652      0             -3.4974028    
       745  -4864.2656      0             -3.7103031    
       746  -4864.266       0             -3.8724064    
       747  -4864.2664      0             -3.5507187    
       748  -4864.2667      0             -3.1839711    
       749  -4864.2672      0             -3.1388448    
       750  -4864.2675      0             -2.9393733    
       751  -4864.2678      0             -2.7502278    
       752  -4864.2682      0             -2.6257166    
       753  -4864.2684      0             -2.499328     
       754  -4864.2687      0             -2.1761731    
       755  -4864.269       0             -1.8699431    
       756  -4864.2692      0             -1.7038105    
       757  -4864.2696      0             -1.8429495    
       758  -4864.27        0             -1.996509     
       759  -4864.2702      0             -2.171913     
       760  -4864.2707      0             -2.4202589    
       761  -4864.2711      0             -2.7826464    
       762  -4864.2716      0             -2.9937438    
       763  -4864.2721      0             -3.2483185    
       764  -4864.2729      0             -3.42457      
       765  -4864.2738      0             -3.7847097    
       766  -4864.2749      0             -4.0111208    
       767  -4864.2758      0             -4.2990336    
       768  -4864.2773      0             -5.1161927    
       769  -4864.2798      0             -7.1951724    
       770  -4864.2862      0             -13.85581     
       771  -4864.2967      0             -24.792931    
       772  -4864.3084      0             -29.243321    
       773  -4864.3248      0             -28.022704    
       774  -4864.3375      0             -26.701665    
       775  -4864.3556      0             -22.505924    
       776  -4864.3693      0             -18.688686    
       777  -4864.3817      0             -13.15577     
       778  -4864.3943      0             -7.5826864    
       779  -4864.4058      0             -5.0508783    
       780  -4864.4214      0             -1.8878745    
       781  -4864.4339      0              1.936152     
       782  -4864.4509      0              4.9194083    
       783  -4864.4635      0              4.9867387    
       784  -4864.4751      0              2.9359561    
       785  -4864.4856      0              0.31978798   
       786  -4864.4944      0             -1.2559365    
       787  -4864.5018      0             -4.5435893    
       788  -4864.5076      0             -7.5110031    
       789  -4864.5131      0             -10.482777    
       790  -4864.518       0             -11.961869    
       791  -4864.5222      0             -12.796788    
       792  -4864.5263      0             -14.789984    
       793  -4864.5301      0             -16.157251    
       794  -4864.5334      0             -15.276527    
       795  -4864.5369      0             -12.944863    
       796  -4864.5396      0             -11.78998     
       797  -4864.5419      0             -11.009894    
       798  -4864.5444      0             -9.5808424    
       799  -4864.5469      0             -8.3033761    
       800  -4864.5492      0             -7.5011953    
       801  -4864.5515      0             -6.9690221    
       802  -4864.5539      0             -6.4960886    
       803  -4864.5559      0             -6.1173028    
       804  -4864.5582      0             -6.5253914    
       805  -4864.5604      0             -7.0425048    
       806  -4864.5621      0             -6.9515076    
       807  -4864.564       0             -6.986294     
       808  -4864.5658      0             -7.5556965    
       809  -4864.5674      0             -7.7269418    
       810  -4864.5692      0             -7.553542     
       811  -4864.5704      0             -7.0383204    
       812  -4864.5717      0             -6.7694424    
       813  -4864.5729      0             -6.5909913    
       814  -4864.5738      0             -6.1388773    
       815  -4864.5746      0             -5.8427077    
       816  -4864.5755      0             -5.7913476    
       817  -4864.5764      0             -5.5265181    
       818  -4864.5772      0             -4.9492461    
       819  -4864.5779      0             -4.5709094    
       820  -4864.5788      0             -4.2871075    
       821  -4864.5794      0             -3.8776035    
       822  -4864.58        0             -3.6916612    
       823  -4864.5805      0             -3.4945283    
       824  -4864.5812      0             -3.569729     
       825  -4864.5819      0             -3.9019956    
       826  -4864.5825      0             -3.9021782    
       827  -4864.583       0             -3.7306084    
       828  -4864.5836      0             -3.7411083    
       829  -4864.5842      0             -3.5517359    
       830  -4864.5848      0             -3.5440123    
       831  -4864.5853      0             -3.4545223    
       832  -4864.5858      0             -3.2183427    
       833  -4864.5864      0             -3.0862441    
       834  -4864.5871      0             -2.7045483    
       835  -4864.5877      0             -2.2884578    
       836  -4864.5883      0             -1.9642819    
       837  -4864.589       0             -1.7588145    
       838  -4864.5896      0             -1.3735295    
       839  -4864.5903      0             -0.77144845   
       840  -4864.5909      0             -0.66433676   
       841  -4864.5915      0             -0.51634225   
       842  -4864.5921      0              0.0069196521 
       843  -4864.5927      0              0.53674929   
       844  -4864.5933      0              0.98248497   
       845  -4864.5939      0              1.1075086    
       846  -4864.5945      0              1.5271786    
       847  -4864.595       0              2.0646801    
       848  -4864.5956      0              1.9992379    
       849  -4864.596       0              1.8466174    
       850  -4864.5963      0              1.820661     
       851  -4864.5966      0              1.8919954    
       852  -4864.5969      0              2.2156355    
       853  -4864.5973      0              2.3316228    
       854  -4864.5976      0              2.1717213    
       855  -4864.5978      0              2.1606625    
       856  -4864.5982      0              2.1930714    
       857  -4864.5984      0              2.1479236    
       858  -4864.5987      0              2.0267677    
       859  -4864.599       0              1.8780948    
       860  -4864.5994      0              1.8250095    
       861  -4864.5999      0              1.8226909    
       862  -4864.6002      0              1.83445      
       863  -4864.6006      0              1.8941537    
       864  -4864.6008      0              1.9319188    
       865  -4864.6009      0              2.2518399    
       866  -4864.6014      0              2.5155531    
       867  -4864.6019      0              2.562334     
       868  -4864.6024      0              2.7526178    
       869  -4864.6026      0              2.7751357    
       870  -4864.603       0              2.6769274    
       871  -4864.6034      0              2.4809183    
       872  -4864.6038      0              2.4061204    
       873  -4864.6043      0              2.5472167    
       874  -4864.6047      0              2.3326855    
       875  -4864.6052      0              2.2395306    
       876  -4864.6057      0              1.7783539    
       877  -4864.6062      0              1.300247     
       878  -4864.6067      0              1.0331336    
       879  -4864.6073      0              0.52464081   
       880  -4864.6078      0              0.33274949   
       881  -4864.6082      0              0.45268086   
       882  -4864.6087      0              0.54544074   
       883  -4864.6091      0              0.37657844   
       884  -4864.6095      0              0.39112646   
       885  -4864.61        0              0.61778144   
       886  -4864.6104      0              0.56248577   
       887  -4864.6107      0              0.45322577   
       888  -4864.6111      0              0.34190212   
       889  -4864.6115      0              0.50209548   
       890  -4864.6117      0              0.72859525   
       891  -4864.6119      0              0.71223315   
       892  -4864.612       0              0.66796091   
       893  -4864.6123      0              0.62098758   
       894  -4864.6125      0              0.51273796   
       895  -4864.6126      0              0.37279284   
       896  -4864.6127      0              0.28042395   
       897  -4864.6129      0              0.25585409   
       898  -4864.613       0              0.23092593   
       899  -4864.6132      0              0.27446085   
       900  -4864.6134      0              0.22231577   
       901  -4864.6134      0              0.22231577   
Loop time of 62.4843 on 1 procs for 901 steps with 720 atoms

97.9% CPU use with 1 MPI tasks x 1 OpenMP threads

Minimization stats:
  Stopping criterion = linesearch alpha is zero
  Energy initial, next-to-last, final = 
     -4692.03843421956  -4864.61335610347  -4864.61335610347
  Force two-norm initial, final = 54.521559 0.053243993
  Force max component initial, final = 5.1460974 0.012412148
  Final line search alpha, max atom move = 3.8146973e-06 4.7348588e-08
  Iterations, force evaluations = 901 1764

MPI task timing breakdown:
Section |  min time  |  avg time  |  max time  |%varavg| %total
---------------------------------------------------------------
Pair    | 5.5127     | 5.5127     | 5.5127     |   0.0 |  8.82
Kspace  | 56.907     | 56.907     | 56.907     |   0.0 | 91.07
Neigh   | 0.013348   | 0.013348   | 0.013348   |   0.0 |  0.02
Comm    | 0.0016489  | 0.0016489  | 0.0016489  |   0.0 |  0.00
Output  | 0.019105   | 0.019105   | 0.019105   |   0.0 |  0.03
Modify  | 0          | 0          | 0          |   0.0 |  0.00
Other   |            | 0.0302     |            |       |  0.05

Nlocal:            720 ave         720 max         720 min
Histogram: 1 0 0 0 0 0 0 0 0 0
Nghost:              0 ave           0 max           0 min
Histogram: 1 0 0 0 0 0 0 0 0 0
Neighs:         123694 ave      123694 max      123694 min
Histogram: 1 0 0 0 0 0 0 0 0 0

Total # of neighbors = 123694
Ave neighs/atom = 171.79722
Neighbor list builds = 20
Dangerous builds = 0

reset_timestep  0
write_dump      all atom dump/relaxed.dump.gz

# read_dump       relaxed_disl.dump.gz 0 x y z box yes replace yes

log             log.md.npt
